
Gurobi 9.5.0 (linux64) logging started Wed Nov  8 12:05:43 2023

Set parameter LogFile to value "/lustre1/scratch/348/vsc34888/JointResearch/05.Models/06.Benchmarking/F.Representative_days_based_on_Line_Benefit_NN_OC_fy_1/3-bus_ByStages_nc10/openStarNet_3-bus_ByStages_nc10.log"
Set parameter Method to value 2
Set parameter MIPFocus to value 1
Set parameter Presolve to value 2
Set parameter RINS to value 100
Set parameter MIPGap to value 0.01
Set parameter Threads to value 36
Set parameter TimeLimit to value 604800
Set parameter IterationLimit to value 760000000
Gurobi Optimizer version 9.5.0 build v9.5.0rc5 (linux64)
Thread count: 36 physical cores, 36 logical processors, using up to 36 threads
Optimize a model with 663 rows, 309 columns and 1912 nonzeros
Model fingerprint: 0xd0940fc8
Variable types: 300 continuous, 9 integer (9 binary)
Coefficient statistics:
  Matrix range     [2e-02, 1e+03]
  Objective range  [1e+00, 1e+00]
  Bounds range     [6e-03, 2e+00]
  RHS range        [6e-03, 1e+00]
Presolve removed 243 rows and 74 columns
Presolve time: 0.00s
Presolved: 420 rows, 235 columns, 1486 nonzeros
Variable types: 226 continuous, 9 integer (9 binary)
Found heuristic solution: objective 77.1494257
Root relaxation presolved: 420 rows, 235 columns, 1486 nonzeros

Root barrier log...

Ordering time: 0.00s

Barrier statistics:
 AA' NZ     : 9.840e+03
 Factor NZ  : 4.681e+04 (roughly 1 MB of memory)
 Factor Ops : 6.969e+06 (less than 1 second per iteration)
 Threads    : 1

                  Objective                Residual
Iter       Primal          Dual         Primal    Dual     Compl     Time
   0   3.57594786e+05 -3.21080005e+07  1.43e+01 2.47e+02  5.89e+04     0s
   1   1.52822014e+04 -6.32038992e+05  7.17e-01 2.55e-11  1.61e+03     0s
   2   1.34644351e+03 -3.94928944e+05  4.98e-02 3.02e-10  5.20e+02     0s
   3   6.00311454e+02 -1.11673206e+04  2.30e-11 3.82e-11  1.42e+01     0s
   4   2.15499554e+02 -9.15996359e+02  3.00e-10 3.64e-12  1.36e+00     0s
   5   9.39952602e+01 -4.59030874e+01  1.59e-10 1.82e-12  1.69e-01     0s
   6   7.24752537e+01  5.60409507e+01  8.78e-11 1.82e-12  1.98e-02     0s
   7   6.67733271e+01  6.43177266e+01  6.81e-11 1.82e-12  2.96e-03     0s
   8   6.62206326e+01  6.59009796e+01  5.84e-09 1.82e-12  3.85e-04     0s
   9   6.60477758e+01  6.60465276e+01  2.08e-09 1.82e-12  1.50e-06     0s
  10   6.60471365e+01  6.60471352e+01  4.63e-10 1.82e-12  1.50e-09     0s
  11   6.60471358e+01  6.60471358e+01  1.73e-10 1.82e-12  2.86e-15     0s

Barrier solved model in 11 iterations and 0.04 seconds (0.02 work units)
Optimal objective 6.60471358e+01


Root relaxation: objective 6.604714e+01, 45 iterations, 0.03 seconds (0.01 work units)

    Nodes    |    Current Node    |     Objective Bounds      |     Work
 Expl Unexpl |  Obj  Depth IntInf | Incumbent    BestBd   Gap | It/Node Time

     0     0   66.04714    0    2   77.14943   66.04714  14.4%     -    0s
H    0     0                      66.3767724   66.04714  0.50%     -    0s

Cutting planes:
  Gomory: 2
  MIR: 7

Explored 1 nodes (45 simplex iterations) in 0.05 seconds (0.02 work units)
Thread count was 36 (of 36 available processors)

Solution count 2: 66.3768 77.1494 

Optimal solution found (tolerance 1.00e-02)
Best objective 6.637677236256e+01, best bound 6.604713581607e+01, gap 0.4966%

Gurobi 9.5.0 (linux64) logging started Wed Nov  8 12:05:43 2023

Set parameter LogFile to value "/lustre1/scratch/348/vsc34888/JointResearch/05.Models/06.Benchmarking/F.Representative_days_based_on_Line_Benefit_NN_OC_fy_1/3-bus_ByStages_nc10/openStarNet_3-bus_ByStages_nc10.log"
Set parameter Method to value 2
Set parameter MIPFocus to value 1
Set parameter Presolve to value 2
Set parameter RINS to value 100
Set parameter MIPGap to value 0.01
Set parameter Threads to value 36
Set parameter TimeLimit to value 604800
Set parameter IterationLimit to value 760000000
No parameters matching 'relax_integrality' found
Gurobi Optimizer version 9.5.0 build v9.5.0rc5 (linux64)
Thread count: 36 physical cores, 36 logical processors, using up to 36 threads
Optimize a model with 663 rows, 300 columns and 1543 nonzeros
Model fingerprint: 0xda77f77f
Coefficient statistics:
  Matrix range     [2e-02, 1e+03]
  Objective range  [1e+00, 1e+00]
  Bounds range     [6e-03, 2e+00]
  RHS range        [6e-03, 1e+00]
Presolve removed 593 rows and 174 columns
Presolve time: 0.00s
Presolved: 70 rows, 126 columns, 256 nonzeros

Ordering time: 0.00s

Barrier statistics:
 AA' NZ     : 1.700e+02
 Factor NZ  : 2.800e+02
 Factor Ops : 1.400e+03 (less than 1 second per iteration)
 Threads    : 1

                  Objective                Residual
Iter       Primal          Dual         Primal    Dual     Compl     Time
   0   4.32358378e+05 -2.65271432e+07  3.77e+01 8.86e+02  1.58e+05     0s
   1   1.40398997e+04 -4.37759890e+05  1.60e+00 5.46e-12  3.37e+03     0s
   2   1.23597223e+03 -4.60604880e+04  4.97e-14 6.37e-12  1.88e+02     0s
   3   4.23935480e+02 -1.70189833e+03  1.16e-11 4.50e-12  8.44e+00     0s
   4   1.65452369e+02 -5.89384655e+02  2.88e-11 1.82e-12  3.00e+00     0s
   5   1.12462878e+02 -1.95451164e+02  2.81e-11 1.82e-12  1.22e+00     0s
   6   7.90430537e+01 -2.83549990e+01  1.30e-11 1.82e-12  4.26e-01     0s
   7   6.88859514e+01  4.65166113e+01  3.36e-11 1.82e-12  8.88e-02     0s
   8   6.65620280e+01  6.52777907e+01  1.99e-10 1.82e-12  5.10e-03     0s
   9   6.63827108e+01  6.63480692e+01  1.13e-10 1.82e-12  1.37e-04     0s
  10   6.63767783e+01  6.63767437e+01  2.30e-10 1.82e-12  1.38e-07     0s
  11   6.63767724e+01  6.63767724e+01  3.93e-10 1.82e-12  1.38e-13     0s

Barrier solved model in 11 iterations and 0.00 seconds (0.00 work units)
Optimal objective 6.63767724e+01

Crossover log...

       1 DPushes remaining with DInf 0.0000000e+00                 0s
       0 DPushes remaining with DInf 0.0000000e+00                 0s

      10 PPushes remaining with PInf 0.0000000e+00                 0s
       0 PPushes remaining with PInf 0.0000000e+00                 0s

  Push phase complete: Pinf 0.0000000e+00, Dinf 9.5923269e-14      0s

Iteration    Objective       Primal Inf.    Dual Inf.      Time
      14    6.6376772e+01   0.000000e+00   0.000000e+00      0s

Solved in 14 iterations and 0.00 seconds (0.00 work units)
Optimal objective  6.637677236e+01
